(define-fun-rec
  u0
  ((x Int) (y Int)) Int (ite (<= x 0) y (* (u0 (- x 1) y) x)))
(define-fun
  h2
  ((x Int)) Int x)
(define-fun
  g3
  ((x Int) (y Int)) Int y)
(define-fun
  g2
  ((x Int) (y Int)) Int (+ y y))
(define-fun
  g1
  ((x Int)) Int x)
(define-fun
  f3
  ((x Int) (y Int)) Int (* 2 (+ (- x (div x y)) x)))
(define-fun-rec
  u3
  ((x Int) (y Int)) Int (ite (<= x 0) y (f3 (u3 (- x 1) y) x)))
(define-fun
  v3
  ((x Int) (y Int)) Int (u3 y 1))
(define-fun
  f2
  ((x Int) (y Int)) Int (* (- (* (v3 x y) x) (mod y 1)) x))
(define-funs-rec
  ((u2
    ((x Int) (y Int) (z Int)) Int)
   (v2
    ((x Int) (y Int) (z Int)) Int))
  ((ite (<= x 0) y (f2 (u2 (- x 1) y z) (v2 (- x 1) y z)))
   (ite (<= x 0) z (g2 (u2 (- x 1) y z) (v2 (- x 1) y z)))))
(define-fun
  w2
  ((x Int)) Int (u2 x 1 1))
(define-fun
  f1
  ((x Int)) Int (+ x x))
(define-fun-rec
  u1
  ((x Int) (y Int)) Int (ite (<= x 0) y (f1 (u1 (- x 1) y))))
(define-fun
  v1
  ((x Int)) Int (u1 x 1))
(define-fun
  v0
  ((x Int)) Int (u0 (v1 x) 1))
(assert-not
  (forall ((c Int)) (or (not (>= c 0)) (= (v0 c) (w2 c)))))
